c description: Random 3-CNF over 15 variables and 110 clauses
c generator: CNFgen (0.9.0)
c copyright: (C) 2012-2020 Massimo Lauria <massimo.lauria@uniroma1.it>
c url: https://massimolauria.net/cnfgen
c
p cnf 15 110
8 -10 15 0
1 10 12 0
-3 5 13 0
2 -7 9 0
-2 9 -12 0
1 5 13 0
-4 -6 -14 0
-3 10 13 0
2 -4 9 0
9 -11 14 0
-3 11 -12 0
5 9 -14 0
-3 7 15 0
-5 6 13 0
-4 -6 11 0
-4 -8 -12 0
10 14 15 0
-7 -10 -15 0
3 10 -11 0
-2 -4 8 0
-1 12 14 0
11 -12 13 0
-6 -7 11 0
-4 -8 14 0
-4 -8 12 0
-6 8 -15 0
-6 12 -14 0
-1 -2 -14 0
1 -3 -15 0
6 -12 13 0
-2 -11 13 0
-2 -5 15 0
-4 -7 8 0
3 -5 13 0
-3 4 -6 0
-4 6 -8 0
1 7 8 0
-4 -12 -15 0
3 -7 10 0
-2 -3 15 0
7 -8 -9 0
-7 11 13 0
10 -11 13 0
-7 8 14 0
6 -14 -15 0
3 8 -14 0
-1 9 -13 0
-3 -4 9 0
3 -6 9 0
10 -11 15 0
7 11 -15 0
-1 13 14 0
6 -9 11 0
8 -12 13 0
-5 -7 9 0
4 11 -12 0
-4 6 -15 0
2 -6 13 0
-5 -6 -12 0
2 -5 9 0
6 -9 -14 0
8 -9 -10 0
9 11 -13 0
-9 14 -15 0
4 -11 14 0
-8 9 13 0
3 -5 -10 0
7 13 15 0
8 11 12 0
1 -3 4 0
1 7 12 0
1 -9 -11 0
-2 11 -12 0
-9 13 14 0
6 10 -13 0
4 7 9 0
-1 -4 11 0
1 -7 -14 0
-5 -6 15 0
-4 -5 -9 0
5 -6 12 0
-6 -10 13 0
-1 -4 -6 0
1 2 -11 0
-4 -12 15 0
-7 13 -15 0
1 -5 12 0
1 13 -15 0
3 -7 15 0
1 9 11 0
-8 -12 -15 0
-8 -10 -12 0
9 -12 -13 0
3 -4 -9 0
-2 4 14 0
10 -14 -15 0
4 -7 -15 0
-4 7 12 0
-3 13 14 0
-9 -11 13 0
1 11 14 0
3 4 12 0
-2 6 -8 0
6 -8 -14 0
6 7 -12 0
-9 10 -13 0
1 -14 15 0
6 -8 -11 0
6 7 13 0
-7 10 11 0